(set-info :smt-lib-version 2.6)
(set-logic QF_NIA)
(set-info :source |
Generated by: Cristina Borralleras, Daniel Larraz, Albert Oliveras, Enric Rodriguez-Carbonell, Albert Rubio
Generated on: 2017-04-27
Generator: VeryMax
Application: Termination proving
Target solver: barcelogic
|)
(set-info :license "https://creativecommons.org/licenses/by/4.0/")
(set-info :category "industrial")
(set-info :status unsat)
(declare-fun Nl2arg11 () Int)
(declare-fun Nl2arg21 () Int)
(declare-fun Nl2arg31 () Int)
(declare-fun Nl2arg41 () Int)
(declare-fun lam0n0 () Int)
(declare-fun lam0n1 () Int)
(declare-fun lam0n2 () Int)
(declare-fun lam0n3 () Int)
(declare-fun lam0n4 () Int)
(declare-fun lam0n5 () Int)
(declare-fun lam0n6 () Int)
(declare-fun lam0n8 () Int)
(declare-fun Nl2CT1 () Int)
(declare-fun lam0n7 () Int)
(declare-fun lam1n0 () Int)
(declare-fun lam1n1 () Int)
(declare-fun lam1n2 () Int)
(declare-fun lam1n3 () Int)
(declare-fun lam1n4 () Int)
(declare-fun lam1n5 () Int)
(declare-fun lam1n6 () Int)
(declare-fun lam1n8 () Int)
(declare-fun lam1n7 () Int)
(declare-fun lam2n1 () Int)
(declare-fun lam2n2 () Int)
(declare-fun lam2n3 () Int)
(declare-fun lam2n0 () Int)
(declare-fun arg4 () Int)
(declare-fun arg1 () Int)
(declare-fun arg2 () Int)
(declare-fun arg3 () Int)
(declare-fun lam6n0 () Int)
(declare-fun lam6n1 () Int)
(declare-fun lam6n2 () Int)
(declare-fun lam6n3 () Int)
(declare-fun lam6n4 () Int)
(declare-fun lam6n5 () Int)
(declare-fun lam6n6 () Int)
(declare-fun lam6n7 () Int)
(declare-fun lam6n8 () Int)
(declare-fun lam6n9 () Int)
(declare-fun lam6n10 () Int)
(declare-fun lam6n12 () Int)
(declare-fun RFN1_CT () Int)
(declare-fun RFN1_arg1 () Int)
(declare-fun RFN1_arg2 () Int)
(declare-fun RFN1_arg3 () Int)
(declare-fun RFN1_arg4 () Int)
(declare-fun lam6n11 () Int)
(declare-fun lam4n0 () Int)
(declare-fun lam4n1 () Int)
(declare-fun lam4n2 () Int)
(declare-fun lam4n3 () Int)
(declare-fun lam4n4 () Int)
(declare-fun lam4n5 () Int)
(declare-fun lam4n6 () Int)
(declare-fun lam4n7 () Int)
(declare-fun lam4n8 () Int)
(declare-fun lam4n9 () Int)
(declare-fun lam4n10 () Int)
(declare-fun lam4n12 () Int)
(declare-fun lam4n11 () Int)
(declare-fun lam5n0 () Int)
(declare-fun lam5n1 () Int)
(declare-fun lam5n2 () Int)
(declare-fun lam5n3 () Int)
(declare-fun lam5n4 () Int)
(declare-fun lam5n5 () Int)
(declare-fun lam5n6 () Int)
(declare-fun lam5n7 () Int)
(declare-fun lam5n8 () Int)
(declare-fun lam5n9 () Int)
(declare-fun lam5n10 () Int)
(declare-fun lam5n12 () Int)
(declare-fun lam5n11 () Int)
(declare-fun lam3n0 () Int)
(declare-fun lam3n1 () Int)
(declare-fun lam3n2 () Int)
(declare-fun lam3n3 () Int)
(declare-fun lam3n4 () Int)
(declare-fun lam3n5 () Int)
(declare-fun lam3n6 () Int)
(declare-fun lam3n7 () Int)
(declare-fun lam3n8 () Int)
(declare-fun lam3n9 () Int)
(declare-fun lam3n10 () Int)
(declare-fun lam3n12 () Int)
(declare-fun lam3n11 () Int)
(assert ( and ( <= ( - 2 ) Nl2arg11 ) ( <= Nl2arg11 2 ) ( <= ( - 2 ) Nl2arg21 ) ( <= Nl2arg21 2 ) ( <= ( - 2 ) Nl2arg31 ) ( <= Nl2arg31 2 ) ( <= ( - 2 ) Nl2arg41 ) ( <= Nl2arg41 2 ) ))
(assert ( or ( and ( >= lam0n0 0 ) ( >= lam0n1 0 ) ( >= lam0n2 0 ) ( >= lam0n3 0 ) ( >= lam0n4 0 ) ( >= lam0n5 0 ) ( >= lam0n6 0 ) ( >= lam0n8 0 ) ( > ( + ( * 2 lam0n0 ) ( * 1 lam0n4 ) ( * ( - 1 ) lam0n5 ) ( * ( - 1 ) lam0n6 ) ( * Nl2CT1 lam0n8 ) ( - 1 ) ) 0 ) ( = ( + ( * ( - 1 ) lam0n0 ) ( * ( - 1 ) lam0n1 ) ( * ( - 1 ) lam0n5 ) ( * Nl2arg11 lam0n8 ) ) 0 ) ( = ( + ( * ( - 1 ) lam0n2 ) ( * ( - 1 ) lam0n4 ) ( * ( - 1 ) lam0n5 ) ( * 1 lam0n7 ) ( * Nl2arg21 lam0n8 ) ) 0 ) ( = ( + ( * 1 lam0n1 ) ( * ( - 1 ) lam0n5 ) ( * ( - 1 ) lam0n6 ) ( * ( - 1 ) lam0n7 ) ( * Nl2arg31 lam0n8 ) ) 0 ) ( = ( + ( * 1 lam0n2 ) ( * ( - 1 ) lam0n3 ) ( * 1 lam0n5 ) ( * Nl2arg41 lam0n8 ) ) 0 ) ) ( and ( >= lam1n0 0 ) ( >= lam1n1 0 ) ( >= lam1n2 0 ) ( >= lam1n3 0 ) ( >= lam1n4 0 ) ( >= lam1n5 0 ) ( >= lam1n6 0 ) ( >= lam1n8 0 ) ( > ( + ( * 2 lam1n0 ) ( * 1 lam1n4 ) ( * ( - 1 ) lam1n5 ) ( * ( - 1 ) lam1n6 ) ( * Nl2CT1 lam1n8 ) ( - 1 ( + ( + ( + ( + Nl2CT1 ( * Nl2arg11 2 ) ) ( * Nl2arg21 2 ) ) ( * Nl2arg31 2 ) ) ( * Nl2arg41 1 ) ) ) ) 0 ) ( = ( + ( * ( - 1 ) lam1n0 ) ( * ( - 1 ) lam1n1 ) ( * ( - 1 ) lam1n5 ) ( * Nl2arg11 lam1n8 ) ) 0 ) ( = ( + ( * ( - 1 ) lam1n2 ) ( * ( - 1 ) lam1n4 ) ( * ( - 1 ) lam1n5 ) ( * 1 lam1n7 ) ( * Nl2arg21 lam1n8 ) ( - ( + ( + ( + 0 ( * Nl2arg11 1 ) ) ( * Nl2arg21 1 ) ) ( * Nl2arg31 1 ) ) ) ) 0 ) ( = ( + ( * 1 lam1n1 ) ( * ( - 1 ) lam1n5 ) ( * ( - 1 ) lam1n6 ) ( * ( - 1 ) lam1n7 ) ( * Nl2arg31 lam1n8 ) ) 0 ) ( = ( + ( * 1 lam1n2 ) ( * ( - 1 ) lam1n3 ) ( * 1 lam1n5 ) ( * Nl2arg41 lam1n8 ) ( - ( + 0 ( * Nl2arg41 1 ) ) ) ) 0 ) ) ))
(assert ( and ( = arg4 0 ) ( = ( + ( - 2 ) arg1 ) 0 ) ( = ( + ( - 2 ) arg2 ) 0 ) ( = ( + ( - 2 ) arg3 ) 0 ) ( <= ( + Nl2CT1 ( * ( + 0 Nl2arg11 ) arg1 ) ( * ( + 0 Nl2arg21 ) arg2 ) ( * ( + 0 Nl2arg31 ) arg3 ) ( * ( + 0 Nl2arg41 ) arg4 ) ) 0 ) ( <= ( + ( - 1 ) ( * ( - 1 ) arg2 ) arg3 ) 0 ) ( <= ( + ( - 1 ) ( * ( - 1 ) arg3 ) ) 0 ) ( <= ( + ( - 1 ) ( * ( - 1 ) arg1 ) ( * ( - 1 ) arg2 ) ( * ( - 1 ) arg3 ) arg4 ) 0 ) ( <= ( + ( * ( - 1 ) arg1 ) arg3 ) 0 ) ))
(assert ( or ( and ( and ( >= lam6n0 0 ) ( >= lam6n1 0 ) ( >= lam6n2 0 ) ( >= lam6n3 0 ) ( >= lam6n4 0 ) ( >= lam6n5 0 ) ( >= lam6n6 0 ) ( >= lam6n7 0 ) ( >= lam6n8 0 ) ( >= lam6n9 0 ) ( >= lam6n10 0 ) ( >= lam6n12 0 ) ( > ( + ( * 2 lam6n0 ) ( * 1 lam6n4 ) ( * ( - 1 ) lam6n5 ) ( * ( - 1 ) lam6n6 ) ( * 50001 lam6n7 ) ( * 50001 lam6n8 ) ( * 50001 lam6n9 ) ( * 50001 lam6n10 ) ( * Nl2CT1 lam6n12 ) ( - 1 ( - ( + ( + ( + ( + RFN1_CT ( * RFN1_arg1 2 ) ) ( * RFN1_arg2 2 ) ) ( * RFN1_arg3 2 ) ) ( * RFN1_arg4 1 ) ) RFN1_CT ) ) ) 0 ) ( = ( + ( * ( - 1 ) lam6n0 ) ( * ( - 1 ) lam6n1 ) ( * ( - 1 ) lam6n5 ) ( * 1 lam6n7 ) ( * Nl2arg11 lam6n12 ) ( - ( - RFN1_arg1 ) ) ) 0 ) ( = ( + ( * ( - 1 ) lam6n2 ) ( * ( - 1 ) lam6n4 ) ( * ( - 1 ) lam6n5 ) ( * ( - 3 ) lam6n7 ) ( * 1 lam6n8 ) ( * ( - 2 ) lam6n9 ) ( * 1 lam6n11 ) ( * Nl2arg21 lam6n12 ) ( - ( - ( + ( + ( + 0 ( * RFN1_arg1 1 ) ) ( * RFN1_arg2 1 ) ) ( * RFN1_arg3 1 ) ) RFN1_arg2 ) ) ) 0 ) ( = ( + ( * 1 lam6n1 ) ( * ( - 1 ) lam6n5 ) ( * ( - 1 ) lam6n6 ) ( * 1 lam6n7 ) ( * 1 lam6n9 ) ( * ( - 1 ) lam6n10 ) ( * ( - 1 ) lam6n11 ) ( * Nl2arg31 lam6n12 ) ( - ( - RFN1_arg3 ) ) ) 0 ) ( = ( + ( * 1 lam6n2 ) ( * ( - 1 ) lam6n3 ) ( * 1 lam6n5 ) ( * 1 lam6n7 ) ( * ( - 3 ) lam6n8 ) ( * 1 lam6n9 ) ( * 1 lam6n10 ) ( * Nl2arg41 lam6n12 ) ( - ( - ( + 0 ( * RFN1_arg4 1 ) ) RFN1_arg4 ) ) ) 0 ) ) ( and ( and ( >= lam4n0 0 ) ( >= lam4n1 0 ) ( >= lam4n2 0 ) ( >= lam4n3 0 ) ( >= lam4n4 0 ) ( >= lam4n5 0 ) ( >= lam4n6 0 ) ( >= lam4n7 0 ) ( >= lam4n8 0 ) ( >= lam4n9 0 ) ( >= lam4n10 0 ) ( >= lam4n12 0 ) ( > ( + ( * 2 lam4n0 ) ( * 1 lam4n4 ) ( * ( - 1 ) lam4n5 ) ( * ( - 1 ) lam4n6 ) ( * 50001 lam4n7 ) ( * 50001 lam4n8 ) ( * 50001 lam4n9 ) ( * 50001 lam4n10 ) ( * Nl2CT1 lam4n12 ) ( - 1 ( - RFN1_CT ) ) ) 0 ) ( = ( + ( * ( - 1 ) lam4n0 ) ( * ( - 1 ) lam4n1 ) ( * ( - 1 ) lam4n5 ) ( * 1 lam4n7 ) ( * Nl2arg11 lam4n12 ) ( - ( - RFN1_arg1 ) ) ) 0 ) ( = ( + ( * ( - 1 ) lam4n2 ) ( * ( - 1 ) lam4n4 ) ( * ( - 1 ) lam4n5 ) ( * ( - 3 ) lam4n7 ) ( * 1 lam4n8 ) ( * ( - 2 ) lam4n9 ) ( * 1 lam4n11 ) ( * Nl2arg21 lam4n12 ) ( - ( - RFN1_arg2 ) ) ) 0 ) ( = ( + ( * 1 lam4n1 ) ( * ( - 1 ) lam4n5 ) ( * ( - 1 ) lam4n6 ) ( * 1 lam4n7 ) ( * 1 lam4n9 ) ( * ( - 1 ) lam4n10 ) ( * ( - 1 ) lam4n11 ) ( * Nl2arg31 lam4n12 ) ( - ( - RFN1_arg3 ) ) ) 0 ) ( = ( + ( * 1 lam4n2 ) ( * ( - 1 ) lam4n3 ) ( * 1 lam4n5 ) ( * 1 lam4n7 ) ( * ( - 3 ) lam4n8 ) ( * 1 lam4n9 ) ( * 1 lam4n10 ) ( * Nl2arg41 lam4n12 ) ( - ( - RFN1_arg4 ) ) ) 0 ) ) ( and ( >= lam5n0 0 ) ( >= lam5n1 0 ) ( >= lam5n2 0 ) ( >= lam5n3 0 ) ( >= lam5n4 0 ) ( >= lam5n5 0 ) ( >= lam5n6 0 ) ( >= lam5n7 0 ) ( >= lam5n8 0 ) ( >= lam5n9 0 ) ( >= lam5n10 0 ) ( >= lam5n12 0 ) ( > ( + ( * 2 lam5n0 ) ( * 1 lam5n4 ) ( * ( - 1 ) lam5n5 ) ( * ( - 1 ) lam5n6 ) ( * 50001 lam5n7 ) ( * 50001 lam5n8 ) ( * 50001 lam5n9 ) ( * 50001 lam5n10 ) ( * Nl2CT1 lam5n12 ) ( - 1 ( + ( - ( + ( + ( + ( + RFN1_CT ( * RFN1_arg1 2 ) ) ( * RFN1_arg2 2 ) ) ( * RFN1_arg3 2 ) ) ( * RFN1_arg4 1 ) ) RFN1_CT ) 1 ) ) ) 0 ) ( = ( + ( * ( - 1 ) lam5n0 ) ( * ( - 1 ) lam5n1 ) ( * ( - 1 ) lam5n5 ) ( * 1 lam5n7 ) ( * Nl2arg11 lam5n12 ) ( - ( - RFN1_arg1 ) ) ) 0 ) ( = ( + ( * ( - 1 ) lam5n2 ) ( * ( - 1 ) lam5n4 ) ( * ( - 1 ) lam5n5 ) ( * ( - 3 ) lam5n7 ) ( * 1 lam5n8 ) ( * ( - 2 ) lam5n9 ) ( * 1 lam5n11 ) ( * Nl2arg21 lam5n12 ) ( - ( - ( + ( + ( + 0 ( * RFN1_arg1 1 ) ) ( * RFN1_arg2 1 ) ) ( * RFN1_arg3 1 ) ) RFN1_arg2 ) ) ) 0 ) ( = ( + ( * 1 lam5n1 ) ( * ( - 1 ) lam5n5 ) ( * ( - 1 ) lam5n6 ) ( * 1 lam5n7 ) ( * 1 lam5n9 ) ( * ( - 1 ) lam5n10 ) ( * ( - 1 ) lam5n11 ) ( * Nl2arg31 lam5n12 ) ( - ( - RFN1_arg3 ) ) ) 0 ) ( = ( + ( * 1 lam5n2 ) ( * ( - 1 ) lam5n3 ) ( * 1 lam5n5 ) ( * 1 lam5n7 ) ( * ( - 3 ) lam5n8 ) ( * 1 lam5n9 ) ( * 1 lam5n10 ) ( * Nl2arg41 lam5n12 ) ( - ( - ( + 0 ( * RFN1_arg4 1 ) ) RFN1_arg4 ) ) ) 0 ) ) ) ) ( and ( >= lam3n0 0 ) ( >= lam3n1 0 ) ( >= lam3n2 0 ) ( >= lam3n3 0 ) ( >= lam3n4 0 ) ( >= lam3n5 0 ) ( >= lam3n6 0 ) ( >= lam3n7 0 ) ( >= lam3n8 0 ) ( >= lam3n9 0 ) ( >= lam3n10 0 ) ( >= lam3n12 0 ) ( > ( + ( * 2 lam3n0 ) ( * 1 lam3n4 ) ( * ( - 1 ) lam3n5 ) ( * ( - 1 ) lam3n6 ) ( * 50001 lam3n7 ) ( * 50001 lam3n8 ) ( * 50001 lam3n9 ) ( * 50001 lam3n10 ) ( * Nl2CT1 lam3n12 ) ( - 1 ) ) 0 ) ( = ( + ( * ( - 1 ) lam3n0 ) ( * ( - 1 ) lam3n1 ) ( * ( - 1 ) lam3n5 ) ( * 1 lam3n7 ) ( * Nl2arg11 lam3n12 ) ) 0 ) ( = ( + ( * ( - 1 ) lam3n2 ) ( * ( - 1 ) lam3n4 ) ( * ( - 1 ) lam3n5 ) ( * ( - 3 ) lam3n7 ) ( * 1 lam3n8 ) ( * ( - 2 ) lam3n9 ) ( * 1 lam3n11 ) ( * Nl2arg21 lam3n12 ) ) 0 ) ( = ( + ( * 1 lam3n1 ) ( * ( - 1 ) lam3n5 ) ( * ( - 1 ) lam3n6 ) ( * 1 lam3n7 ) ( * 1 lam3n9 ) ( * ( - 1 ) lam3n10 ) ( * ( - 1 ) lam3n11 ) ( * Nl2arg31 lam3n12 ) ) 0 ) ( = ( + ( * 1 lam3n2 ) ( * ( - 1 ) lam3n3 ) ( * 1 lam3n5 ) ( * 1 lam3n7 ) ( * ( - 3 ) lam3n8 ) ( * 1 lam3n9 ) ( * 1 lam3n10 ) ( * Nl2arg41 lam3n12 ) ) 0 ) ) ))
(check-sat)
(exit)
